c Reduced graph for r04 generated by Cyril Grelier
p edge 144 1323
e 1 2
e 1 3
e 1 4
e 1 5
e 1 6
e 1 7
e 1 10
e 1 12
e 1 13
e 1 14
e 1 15
e 1 16
e 1 18
e 1 21
e 1 24
e 1 31
e 1 32
e 1 33
e 1 36
e 1 44
e 1 58
e 1 88
e 1 95
e 2 3
e 2 4
e 2 5
e 2 6
e 2 8
e 2 12
e 2 13
e 2 14
e 2 15
e 2 17
e 2 19
e 2 22
e 2 31
e 2 32
e 2 33
e 2 37
e 2 45
e 2 59
e 2 74
e 2 89
e 2 96
e 2 119
e 3 4
e 3 5
e 3 6
e 3 9
e 3 11
e 3 12
e 3 13
e 3 14
e 3 15
e 3 20
e 3 23
e 3 25
e 3 31
e 3 32
e 3 33
e 3 38
e 3 46
e 3 60
e 3 75
e 3 97
e 3 101
e 4 5
e 4 6
e 4 12
e 4 13
e 4 14
e 4 15
e 4 26
e 4 28
e 4 31
e 4 32
e 4 33
e 4 34
e 4 41
e 4 47
e 4 64
e 4 78
e 4 103
e 4 111
e 4 117
e 5 6
e 5 12
e 5 13
e 5 14
e 5 15
e 5 27
e 5 29
e 5 31
e 5 32
e 5 33
e 5 39
e 5 42
e 5 48
e 5 70
e 5 104
e 5 112
e 5 118
e 5 120
e 6 12
e 6 13
e 6 14
e 6 15
e 6 30
e 6 31
e 6 32
e 6 33
e 6 35
e 6 40
e 6 43
e 6 49
e 6 65
e 6 105
e 6 113
e 6 121
e 6 133
e 7 8
e 7 9
e 7 10
e 7 16
e 7 18
e 7 21
e 7 24
e 7 26
e 7 27
e 7 36
e 7 44
e 7 50
e 7 51
e 7 52
e 7 53
e 7 58
e 7 73
e 7 88
e 7 95
e 7 102
e 8 9
e 8 17
e 8 19
e 8 22
e 8 26
e 8 27
e 8 37
e 8 45
e 8 50
e 8 51
e 8 52
e 8 53
e 8 59
e 8 73
e 8 74
e 8 89
e 8 96
e 8 102
e 8 119
e 9 11
e 9 20
e 9 23
e 9 25
e 9 26
e 9 27
e 9 38
e 9 46
e 9 50
e 9 51
e 9 52
e 9 53
e 9 60
e 9 73
e 9 75
e 9 97
e 9 101
e 9 102
e 10 11
e 10 16
e 10 18
e 10 21
e 10 24
e 10 28
e 10 29
e 10 30
e 10 36
e 10 44
e 10 54
e 10 55
e 10 56
e 10 57
e 10 58
e 10 76
e 10 77
e 10 88
e 10 95
e 11 20
e 11 23
e 11 25
e 11 28
e 11 29
e 11 30
e 11 38
e 11 46
e 11 54
e 11 55
e 11 56
e 11 57
e 11 60
e 11 75
e 11 76
e 11 77
e 11 97
e 11 101
e 12 13
e 12 14
e 12 15
e 12 31
e 12 32
e 12 33
e 12 50
e 12 54
e 12 61
e 12 68
e 12 82
e 12 106
e 12 122
e 12 131
e 12 139
e 13 14
e 13 15
e 13 31
e 13 32
e 13 33
e 13 51
e 13 55
e 13 62
e 13 66
e 13 71
e 13 83
e 13 92
e 13 123
e 13 134
e 14 15
e 14 31
e 14 32
e 14 33
e 14 52
e 14 56
e 14 63
e 14 72
e 14 93
e 14 128
e 14 132
e 14 135
e 14 140
e 15 31
e 15 32
e 15 33
e 15 53
e 15 57
e 15 67
e 15 69
e 15 84
e 15 94
e 15 124
e 15 129
e 15 136
e 16 17
e 16 18
e 16 21
e 16 24
e 16 34
e 16 35
e 16 36
e 16 44
e 16 58
e 16 61
e 16 62
e 16 63
e 16 79
e 16 80
e 16 81
e 16 88
e 16 95
e 16 107
e 17 19
e 17 22
e 17 34
e 17 35
e 17 37
e 17 45
e 17 59
e 17 61
e 17 62
e 17 63
e 17 74
e 17 79
e 17 80
e 17 81
e 17 89
e 17 96
e 17 107
e 17 119
e 18 19
e 18 20
e 18 21
e 18 24
e 18 36
e 18 39
e 18 40
e 18 44
e 18 58
e 18 66
e 18 67
e 18 85
e 18 86
e 18 87
e 18 88
e 18 95
e 18 110
e 19 20
e 19 22
e 19 37
e 19 39
e 19 40
e 19 45
e 19 59
e 19 66
e 19 67
e 19 74
e 19 85
e 19 86
e 19 87
e 19 89
e 19 96
e 19 110
e 19 119
e 20 23
e 20 25
e 20 38
e 20 39
e 20 40
e 20 46
e 20 60
e 20 66
e 20 67
e 20 75
e 20 85
e 20 86
e 20 87
e 20 97
e 20 101
e 20 110
e 21 22
e 21 23
e 21 24
e 21 36
e 21 41
e 21 42
e 21 43
e 21 44
e 21 58
e 21 68
e 21 69
e 21 88
e 21 90
e 21 91
e 21 95
e 21 114
e 22 23
e 22 37
e 22 41
e 22 42
e 22 43
e 22 45
e 22 59
e 22 68
e 22 69
e 22 74
e 22 89
e 22 90
e 22 91
e 22 96
e 22 114
e 22 119
e 23 25
e 23 38
e 23 41
e 23 42
e 23 43
e 23 46
e 23 60
e 23 68
e 23 69
e 23 75
e 23 90
e 23 91
e 23 97
e 23 101
e 23 114
e 24 25
e 24 36
e 24 44
e 24 47
e 24 48
e 24 49
e 24 58
e 24 71
e 24 72
e 24 88
e 24 95
e 24 98
e 24 99
e 24 100
e 25 38
e 25 46
e 25 47
e 25 48
e 25 49
e 25 60
e 25 71
e 25 72
e 25 75
e 25 97
e 25 98
e 25 99
e 25 100
e 25 101
e 26 27
e 26 28
e 26 34
e 26 41
e 26 47
e 26 50
e 26 51
e 26 52
e 26 53
e 26 64
e 26 73
e 26 78
e 26 102
e 26 103
e 26 111
e 26 117
e 27 29
e 27 39
e 27 42
e 27 48
e 27 50
e 27 51
e 27 52
e 27 53
e 27 70
e 27 73
e 27 102
e 27 104
e 27 112
e 27 118
e 27 120
e 28 29
e 28 30
e 28 34
e 28 41
e 28 47
e 28 54
e 28 55
e 28 56
e 28 57
e 28 64
e 28 76
e 28 77
e 28 78
e 28 103
e 28 111
e 28 117
e 29 30
e 29 39
e 29 42
e 29 48
e 29 54
e 29 55
e 29 56
e 29 57
e 29 70
e 29 76
e 29 77
e 29 104
e 29 112
e 29 118
e 29 120
e 30 35
e 30 40
e 30 43
e 30 49
e 30 54
e 30 55
e 30 56
e 30 57
e 30 65
e 30 76
e 30 77
e 30 105
e 30 113
e 30 121
e 30 133
e 31 32
e 31 33
e 31 76
e 31 79
e 31 85
e 31 98
e 31 108
e 31 115
e 31 125
e 31 138
e 32 33
e 32 80
e 32 86
e 32 90
e 32 99
e 32 109
e 32 116
e 32 126
e 32 142
e 33 73
e 33 77
e 33 81
e 33 87
e 33 91
e 33 100
e 33 127
e 33 143
e 34 35
e 34 41
e 34 47
e 34 61
e 34 62
e 34 63
e 34 64
e 34 78
e 34 79
e 34 80
e 34 81
e 34 103
e 34 107
e 34 111
e 34 117
e 35 40
e 35 43
e 35 49
e 35 61
e 35 62
e 35 63
e 35 65
e 35 79
e 35 80
e 35 81
e 35 105
e 35 107
e 35 113
e 35 121
e 35 133
e 36 37
e 36 38
e 36 44
e 36 58
e 36 64
e 36 65
e 36 82
e 36 83
e 36 84
e 36 88
e 36 95
e 36 108
e 36 109
e 37 38
e 37 45
e 37 59
e 37 64
e 37 65
e 37 74
e 37 82
e 37 83
e 37 84
e 37 89
e 37 96
e 37 108
e 37 109
e 37 119
e 38 46
e 38 60
e 38 64
e 38 65
e 38 75
e 38 82
e 38 83
e 38 84
e 38 97
e 38 101
e 38 108
e 38 109
e 39 40
e 39 42
e 39 48
e 39 66
e 39 67
e 39 70
e 39 85
e 39 86
e 39 87
e 39 104
e 39 110
e 39 112
e 39 118
e 39 120
e 40 43
e 40 49
e 40 65
e 40 66
e 40 67
e 40 85
e 40 86
e 40 87
e 40 105
e 40 110
e 40 113
e 40 121
e 40 133
e 41 42
e 41 43
e 41 47
e 41 64
e 41 68
e 41 69
e 41 78
e 41 90
e 41 91
e 41 103
e 41 111
e 41 114
e 41 117
e 42 43
e 42 48
e 42 68
e 42 69
e 42 70
e 42 90
e 42 91
e 42 104
e 42 112
e 42 114
e 42 118
e 42 120
e 43 49
e 43 65
e 43 68
e 43 69
e 43 90
e 43 91
e 43 105
e 43 113
e 43 114
e 43 121
e 43 133
e 44 45
e 44 46
e 44 58
e 44 70
e 44 88
e 44 92
e 44 93
e 44 94
e 44 95
e 44 115
e 44 116
e 44 130
e 45 46
e 45 59
e 45 70
e 45 74
e 45 89
e 45 92
e 45 93
e 45 94
e 45 96
e 45 115
e 45 116
e 45 119
e 45 130
e 46 60
e 46 70
e 46 75
e 46 92
e 46 93
e 46 94
e 46 97
e 46 101
e 46 115
e 46 116
e 46 130
e 47 48
e 47 49
e 47 64
e 47 71
e 47 72
e 47 78
e 47 98
e 47 99
e 47 100
e 47 103
e 47 111
e 47 117
e 48 49
e 48 70
e 48 71
e 48 72
e 48 98
e 48 99
e 48 100
e 48 104
e 48 112
e 48 118
e 48 120
e 49 65
e 49 71
e 49 72
e 49 98
e 49 99
e 49 100
e 49 105
e 49 113
e 49 121
e 49 133
e 50 51
e 50 52
e 50 53
e 50 54
e 50 61
e 50 68
e 50 73
e 50 82
e 50 102
e 50 106
e 50 122
e 50 131
e 50 139
e 51 52
e 51 53
e 51 55
e 51 62
e 51 66
e 51 71
e 51 73
e 51 83
e 51 92
e 51 102
e 51 123
e 51 134
e 52 53
e 52 56
e 52 63
e 52 72
e 52 73
e 52 93
e 52 102
e 52 128
e 52 132
e 52 135
e 52 140
e 53 57
e 53 67
e 53 69
e 53 73
e 53 84
e 53 94
e 53 102
e 53 124
e 53 129
e 53 136
e 54 55
e 54 56
e 54 57
e 54 61
e 54 68
e 54 76
e 54 77
e 54 82
e 54 106
e 54 122
e 54 131
e 54 139
e 55 56
e 55 57
e 55 62
e 55 66
e 55 71
e 55 76
e 55 77
e 55 83
e 55 92
e 55 123
e 55 134
e 56 57
e 56 63
e 56 72
e 56 76
e 56 77
e 56 93
e 56 128
e 56 132
e 56 135
e 56 140
e 57 67
e 57 69
e 57 76
e 57 77
e 57 84
e 57 94
e 57 124
e 57 129
e 57 136
e 58 59
e 58 60
e 58 78
e 58 88
e 58 95
e 58 106
e 58 125
e 58 126
e 58 127
e 58 137
e 59 60
e 59 74
e 59 78
e 59 89
e 59 96
e 59 106
e 59 119
e 59 125
e 59 126
e 59 127
e 59 137
e 60 75
e 60 78
e 60 97
e 60 101
e 60 106
e 60 125
e 60 126
e 60 127
e 60 137
e 61 62
e 61 63
e 61 68
e 61 79
e 61 80
e 61 81
e 61 82
e 61 106
e 61 107
e 61 122
e 61 131
e 61 139
e 62 63
e 62 66
e 62 71
e 62 79
e 62 80
e 62 81
e 62 83
e 62 92
e 62 107
e 62 123
e 62 134
e 63 72
e 63 79
e 63 80
e 63 81
e 63 93
e 63 107
e 63 128
e 63 132
e 63 135
e 63 140
e 64 65
e 64 78
e 64 82
e 64 83
e 64 84
e 64 103
e 64 108
e 64 109
e 64 111
e 64 117
e 65 82
e 65 83
e 65 84
e 65 105
e 65 108
e 65 109
e 65 113
e 65 121
e 65 133
e 66 67
e 66 71
e 66 83
e 66 85
e 66 86
e 66 87
e 66 92
e 66 110
e 66 123
e 66 134
e 67 69
e 67 84
e 67 85
e 67 86
e 67 87
e 67 94
e 67 110
e 67 124
e 67 129
e 67 136
e 68 69
e 68 82
e 68 90
e 68 91
e 68 106
e 68 114
e 68 122
e 68 131
e 68 139
e 69 84
e 69 90
e 69 91
e 69 94
e 69 114
e 69 124
e 69 129
e 69 136
e 70 92
e 70 93
e 70 94
e 70 104
e 70 112
e 70 115
e 70 116
e 70 118
e 70 120
e 70 130
e 71 72
e 71 83
e 71 92
e 71 98
e 71 99
e 71 100
e 71 123
e 71 134
e 72 93
e 72 98
e 72 99
e 72 100
e 72 128
e 72 132
e 72 135
e 72 140
e 73 77
e 73 81
e 73 87
e 73 91
e 73 100
e 73 102
e 73 127
e 73 143
e 74 75
e 74 89
e 74 96
e 74 103
e 74 104
e 74 105
e 74 119
e 74 122
e 74 123
e 74 124
e 75 97
e 75 101
e 75 103
e 75 104
e 75 105
e 75 122
e 75 123
e 75 124
e 76 77
e 76 79
e 76 85
e 76 98
e 76 108
e 76 115
e 76 125
e 76 138
e 77 81
e 77 87
e 77 91
e 77 100
e 77 127
e 77 143
e 78 103
e 78 106
e 78 111
e 78 117
e 78 125
e 78 126
e 78 127
e 78 137
e 79 80
e 79 81
e 79 85
e 79 98
e 79 107
e 79 108
e 79 115
e 79 125
e 79 138
e 80 81
e 80 86
e 80 90
e 80 99
e 80 107
e 80 109
e 80 116
e 80 126
e 80 142
e 81 87
e 81 91
e 81 100
e 81 107
e 81 127
e 81 143
e 82 83
e 82 84
e 82 106
e 82 108
e 82 109
e 82 122
e 82 131
e 82 139
e 83 84
e 83 92
e 83 108
e 83 109
e 83 123
e 83 134
e 84 94
e 84 108
e 84 109
e 84 124
e 84 129
e 84 136
e 85 86
e 85 87
e 85 98
e 85 108
e 85 110
e 85 115
e 85 125
e 85 138
e 86 87
e 86 90
e 86 99
e 86 109
e 86 110
e 86 116
e 86 126
e 86 142
e 87 91
e 87 100
e 87 110
e 87 127
e 87 143
e 88 89
e 88 95
e 88 111
e 88 112
e 88 113
e 88 128
e 88 129
e 88 138
e 89 96
e 89 111
e 89 112
e 89 113
e 89 119
e 89 128
e 89 129
e 89 138
e 90 91
e 90 99
e 90 109
e 90 114
e 90 116
e 90 126
e 90 142
e 91 100
e 91 114
e 91 127
e 91 143
e 92 93
e 92 94
e 92 115
e 92 116
e 92 123
e 92 130
e 92 134
e 93 94
e 93 115
e 93 116
e 93 128
e 93 130
e 93 132
e 93 135
e 93 140
e 94 115
e 94 116
e 94 124
e 94 129
e 94 130
e 94 136
e 95 96
e 95 97
e 95 117
e 95 118
e 95 131
e 95 132
e 95 141
e 96 97
e 96 117
e 96 118
e 96 119
e 96 131
e 96 132
e 96 141
e 97 101
e 97 117
e 97 118
e 97 131
e 97 132
e 97 141
e 98 99
e 98 100
e 98 108
e 98 115
e 98 125
e 98 138
e 99 100
e 99 109
e 99 116
e 99 126
e 99 142
e 100 127
e 100 143
e 101 120
e 101 121
e 101 134
e 101 135
e 101 136
e 101 144
e 102 107
e 102 110
e 102 114
e 102 130
e 102 137
e 102 141
e 102 144
e 103 104
e 103 105
e 103 111
e 103 117
e 103 122
e 103 123
e 103 124
e 104 105
e 104 112
e 104 118
e 104 120
e 104 122
e 104 123
e 104 124
e 105 113
e 105 121
e 105 122
e 105 123
e 105 124
e 105 133
e 106 122
e 106 125
e 106 126
e 106 127
e 106 131
e 106 137
e 106 139
e 107 110
e 107 114
e 107 130
e 107 137
e 107 141
e 107 144
e 108 109
e 108 115
e 108 125
e 108 138
e 109 116
e 109 126
e 109 142
e 110 114
e 110 130
e 110 137
e 110 141
e 110 144
e 111 112
e 111 113
e 111 117
e 111 128
e 111 129
e 111 138
e 112 113
e 112 118
e 112 120
e 112 128
e 112 129
e 112 138
e 113 121
e 113 128
e 113 129
e 113 133
e 113 138
e 114 130
e 114 137
e 114 141
e 114 144
e 115 116
e 115 125
e 115 130
e 115 138
e 116 126
e 116 130
e 116 142
e 117 118
e 117 131
e 117 132
e 117 141
e 118 120
e 118 131
e 118 132
e 118 141
e 119 133
e 119 139
e 119 140
e 119 142
e 119 143
e 120 121
e 120 134
e 120 135
e 120 136
e 120 144
e 121 133
e 121 134
e 121 135
e 121 136
e 121 144
e 122 123
e 122 124
e 122 131
e 122 139
e 123 124
e 123 134
e 124 129
e 124 136
e 125 126
e 125 127
e 125 137
e 125 138
e 126 127
e 126 137
e 126 142
e 127 137
e 127 143
e 128 129
e 128 132
e 128 135
e 128 138
e 128 140
e 129 136
e 129 138
e 130 137
e 130 141
e 130 144
e 131 132
e 131 139
e 131 141
e 132 135
e 132 140
e 132 141
e 133 139
e 133 140
e 133 142
e 133 143
e 134 135
e 134 136
e 134 144
e 135 136
e 135 140
e 135 144
e 136 144
e 137 141
e 137 144
e 139 140
e 139 142
e 139 143
e 140 142
e 140 143
e 141 144
e 142 143
